393257695751795333 -3 6 0
263141029257091757 5 0
199157919511831208 -1 -3 0
138024171669058629 1 0
218367134713427231 4 0
551143662323015646 -5 -3 0
12745074425026885 -2 -5 0
218100651261608555 5 0
12829149018998368 -1 -2 0
382036143482088862 1 0
259358520977745489 -1 -6 0
344431606642288422 1 0
341217768790666543 4 0
290050704339188690 1 0
558008391976516074 -2 -5 0
427117136721308392 2 -6 0
22972059003153356 5 0
170792310291347649 3 -6 0
310299811604235809 -3 -4 0
93309281258140903 5 0
191284941565169715 1 0
47333381995199716 -3 -4 0
336163641699452092 1 0
184189360774393068 5 0
255081944507585973 6 -3 0
565441146122748082 4 0
323110331501518482 1 0
192979285518485857 2 -6 0
541989162574869277 1 0
69547575142761714 4 0
173442772806979374 -6 2 0
